peakDumbCharging = 18500; 
Machine = anon_enum(16); 
machineSpeed = [3700,3700,3700,3700,3700,3700,3700,3700,3700,3700,3700,3700,3700,3700,3700,3700]; 
machineLoad = [3700,3700,3700,3700,3700,3700,3700,3700,3700,3700,3700,3700,3700,3700,3700,3700]; 
Car = anon_enum(16); 
demandCar = [5560,3080,16320,15040,18240,5360,20320,18080,7120,5800,1480,14680,12600,27240,1280,30520]; 
arrivalCar = [70,69,69,68,66,60,57,55,50,48,46,39,38,38,33,31]; 
departureCar = [74,71,74,73,74,63,64,62,55,51,48,45,47,47,35,63]; 
